99 64 11 21 28 74 95 38 13 5 32 41 49 52 76 10 26 96 70 94 29 92 98 36 61 27 93 60 79 51 35 59 42 77 69 30 45 53 17 78 9 66 33 12 89 55 62 4 0 15 8 86 44 90 34 83 18 39 71 81 67 88 87 46 75 31 65 43 91 85 56 7 80 50 97 47 20 19 68 6 2 16 1 25 3 22 48 63 37 54 58 84 72 82 40 23 24 14 57 73 

